12,2	0,0	8,9	18,2	0,0	0,0	0,0	0,0	0,0	18,7
14,3	12,0	0,0	6,3	8,5	0,0	0,0	9,5	0,0	0,0
0,0	0,0	6,6	0,0	13,8	7,9	0,0	0,0	19,5	0,0
6,7	0,0	16,3	0,0	0,0	0,0	14,1	0,0	0,0	0,0
0,0	19,8	0,0	11,8	16,1	0,0	0,0	10,9	0,0	0,0
0,0	5,9	12,4	0,0	11,1	13,7	0,0	0,0	19,9	0,0
0,0	11,3	0,0	8,1	0,0	0,0	11,6	0,0	0,0	13,1
6,4	0,0	16,9	0,0	0,0	0,0	0,0	0,0	0,0	19,3
0,0	9,6	0,0	14,1	9,7	0,0	0,0	9,0	0,0	0,0
0,0	0,0	18,8	0,0	0,0	10,2	9,6	0,0	0,0	16,6
									
3,2	4,9	4,8	3,1	3,5	3,8	2,7	4,0	3,3	4,4
